words_hard_train/5272.qaiger
aag 93 23 0 1 70
2
4
8
10
16
18
22
24
30
32
40
42
48
50
60
68
74
78
96
112
126
146
150
186
6 3 5
12 9 11
14 7 13
20 17 19
26 23 25
28 21 27
34 31 33
36 28 35
38 14 36
44 41 43
46 39 44
52 49 51
54 47 52
56 46 53
58 55 57
62 58 60
64 38 45
66 65 47
70 66 68
72 63 71
76 35 75
80 20 78
82 77 80
84 21 35
86 83 85
88 75 79
90 87 89
92 85 26
94 93 37
98 95 96
100 91 99
102 94 97
104 101 103
106 6 37
108 7 36
110 107 109
114 110 113
116 104 115
118 111 112
120 117 119
122 109 12
124 123 39
128 125 126
130 120 129
132 124 127
134 131 133
136 67 69
138 134 137
140 72 139
142 59 61
144 141 143
148 145 146
152 151 51
154 14 28
156 155 44
158 157 53
160 152 158
162 153 159
164 161 163
166 44 53
168 166 34
170 168 154
172 164 170
174 148 173
176 144 147
178 172 176
180 175 179
182 165 171
184 182 177
186 180 185
i0 2 y1[3]
i1 1 x2[4]
i2 2 y1[4]
i3 1 x2[5]
i4 2 y1[1]
i5 1 x2[2]
i6 2 y1[2]
i7 1 x2[3]
i8 2 y1[0]
i9 1 x2[1]
i10 2 y1[5]
i11 1 x2[6]
i12 2 y1[6]
i13 1 x2[7]
i14 2 y2[6]
i15 2 y2[5]
i16 2 y2[0]
i17 2 y2[1]
i18 2 y2[2]
i19 2 y2[3]
i20 2 y2[4]
i21 2 y2[7]
i22 2 y1[7]
o0 bv[0]
c
simplified
  <=
    add
      or
        >> 1
          1 x2
        2 y1
      162
    2 y2
