words_hard_train/5272.qaiger.qdimacs
p cnf 93 211
a 2 5 9 12 16 21 25 0
e 1 3 4 6 7 8 10 11 13 14 15 17 18 19 20 22 23 24 26 27 28 29 30 31 32 33 34 35 36 37 38 39 40 41 42 43 44 45 46 47 48 49 50 51 52 53 54 55 56 57 58 59 60 61 62 63 64 65 66 67 68 69 70 71 72 73 74 75 76 77 78 79 80 81 82 83 84 85 86 87 88 89 90 91 92 93 0
1 2 3 0
-1 -3 0
-2 -3 0
4 5 6 0
-4 -6 0
-5 -6 0
3 6 7 0
-3 -7 0
-6 -7 0
8 9 10 0
-8 -10 0
-9 -10 0
11 12 13 0
-11 -13 0
-12 -13 0
10 13 14 0
-10 -14 0
-13 -14 0
15 16 17 0
-15 -17 0
-16 -17 0
-14 17 18 0
14 -18 0
-17 -18 0
-7 -18 19 0
7 -19 0
18 -19 0
20 21 22 0
-20 -22 0
-21 -22 0
19 -22 23 0
-19 -23 0
22 -23 0
24 25 26 0
-24 -26 0
-25 -26 0
23 -26 27 0
-23 -27 0
26 -27 0
-23 26 28 0
23 -28 0
-26 -28 0
27 28 29 0
-27 -29 0
-28 -29 0
-29 -30 31 0
29 -31 0
30 -31 0
-19 22 32 0
19 -32 0
-22 -32 0
32 23 33 0
-32 -33 0
-23 -33 0
-33 -34 35 0
33 -35 0
34 -35 0
31 35 36 0
-31 -36 0
-35 -36 0
17 37 38 0
-17 -38 0
-37 -38 0
-10 -39 40 0
10 -40 0
39 -40 0
38 -40 41 0
-38 -41 0
40 -41 0
10 17 42 0
-10 -42 0
-17 -42 0
41 42 43 0
-41 -43 0
-42 -43 0
37 39 44 0
-37 -44 0
-39 -44 0
43 44 45 0
-43 -45 0
-44 -45 0
42 -13 46 0
-42 -46 0
13 -46 0
46 18 47 0
-46 -47 0
-18 -47 0
47 -48 49 0
-47 -49 0
48 -49 0
45 49 50 0
-45 -50 0
-49 -50 0
-47 48 51 0
47 -51 0
-48 -51 0
50 51 52 0
-50 -52 0
-51 -52 0
-3 18 53 0
3 -53 0
-18 -53 0
3 -18 54 0
-3 -54 0
18 -54 0
53 54 55 0
-53 -55 0
-54 -55 0
-55 56 57 0
55 -57 0
-56 -57 0
-52 57 58 0
52 -58 0
-57 -58 0
55 -56 59 0
-55 -59 0
56 -59 0
58 59 60 0
-58 -60 0
-59 -60 0
54 -6 61 0
-54 -61 0
6 -61 0
61 19 62 0
-61 -62 0
-19 -62 0
62 -63 64 0
-62 -64 0
63 -64 0
-60 64 65 0
60 -65 0
-64 -65 0
-62 63 66 0
62 -66 0
-63 -66 0
65 66 67 0
-65 -67 0
-66 -67 0
33 34 68 0
-33 -68 0
-34 -68 0
-67 68 69 0
67 -69 0
-68 -69 0
-36 69 70 0
36 -70 0
-69 -70 0
29 30 71 0
-29 -71 0
-30 -71 0
70 71 72 0
-70 -72 0
-71 -72 0
72 -73 74 0
-72 -74 0
73 -74 0
75 25 76 0
-75 -76 0
-25 -76 0
-7 -14 77 0
7 -77 0
14 -77 0
77 -22 78 0
-77 -78 0
22 -78 0
78 26 79 0
-78 -79 0
-26 -79 0
-76 -79 80 0
76 -80 0
79 -80 0
76 79 81 0
-76 -81 0
-79 -81 0
80 81 82 0
-80 -82 0
-81 -82 0
-22 26 83 0
22 -83 0
-26 -83 0
-83 -17 84 0
83 -84 0
17 -84 0
-84 -77 85 0
84 -85 0
77 -85 0
-82 -85 86 0
82 -86 0
85 -86 0
-74 86 87 0
74 -87 0
-86 -87 0
-72 73 88 0
72 -88 0
-73 -88 0
-86 -88 89 0
86 -89 0
88 -89 0
87 89 90 0
-87 -90 0
-89 -90 0
82 85 91 0
-82 -91 0
-85 -91 0
-91 88 92 0
91 -92 0
-88 -92 0
-90 92 93 0
90 -93 0
-92 -93 0
93 0
